NAME : ClusterId_0 
COMMENT : (Gillet and Johnson) 
TYPE : CVRP 
DIMENSION : 15 
EDGE_WEIGHT_TYPE : EUC_2D 
CAPACITY : 500 
NODE_COORD_SECTION 
1 -33 33 
4 0 14 
119 -3 17 
124 -4 17 
9 -12 10 
191 -16 16 
63 -12 42 
158 -17 49 
83 -20 51 
250 -14 44 
238 -13 38 
178 -16 36 
70 -18 34 
225 -26 43 
164 -28 39 
DEMAND_SECTION 
1 1000
4 93
119 18
124 23
9 36
191 75
63 37
158 79
83 99
250 50
238 28
178 36
70 39
225 99
164 97
DEPOT_SECTION 
1
 -1
EOF